NAME: eil101
TYPE: TOUR
DIMENSION: 101
TOUR_SECTION
1
2
8
38
39
40
41
42
9
43
44
45
46
47
10
48
49
50
51
52
11
53
54
55
56
57
12
58
59
60
61
62
3
13
63
64
65
66
67
14
68
69
70
71
72
15
73
74
75
76
77
16
78
79
80
81
82
17
83
84
85
86
87
4
18
88
89
90
91
92
19
93
94
95
96
97
20
98
99
100
101
21
22
5
23
24
25
26
27
6
28
29
30
31
32
7
33
34
35
36
37
EOF